NAME: tsp-a-20
TYPE: TSP
COMMENT: min_cost = 1499.78
DIMENSION: 20
EDGE_WEIGHT_TYPE: EUC_2D
NODE_COORD_SECTION
1 35 78
2 18 130
3 155 108
4 331 142
5 112 217
6 56 320
7 29 394
8 308 79
9 2 326
10 282 291
11 308 29
12 143 46
13 345 249
14 132 25
15 124 130
16 291 255
17 354 188
18 47 285
19 304 224
20 308 197
EOF
